c Output_time 26.03.2020 18:15:32_+0100 1585242932569802147
c ** Program information **
c program_name                          "QBRG_debug"
c version                               "0.3.20"
c date                                  "25.3.2020"
c gid_id                                "673970833836058123f633335630c185360d632e"
c author                                "Oliver Kullmann"
c url                                   "https://github.com/OKullmann/oklibrary/blob/master/Satisfiability/Transformers/Generators/Random/QBRG.cpp"
c ** Machine information **
c machine_name                          "chyna-Lenovo-G50-70"
c bogomips                              3791.08
c ** Compilation information **
c compiler_version                      "g++ 7.5.0"
c compilation_date                      "Mar_26_2020 11:16:30"
c compilation_options                   "--std=c++17 -pedantic -fmax-errors=5 -Wall -Wextra -g -D_GLIBCXX_DEBUG"
c NDEBUG                                0
c OPTIMIZE                              0
c ** Parameters **
c command-line                          "./QBRG_debug" "a40 e40 a40 40" "618*1,1|2-2,1|3-3,1|4-4,1" "" "1,t" ""
c output                                "QuBlRaGe_160_618_1585242932514418551.qdimacs"
c options                               "filtered,renamed"
c num_quantifier_blocks                 4
c  quantifier_blocks                    1:a1-40 2:e41-80 3:a81-120 4:e121-160
c num_clause-blocks                     1
c  clause-blocks                        618 * {1-40,1,1/2} | {41-80,1,1/2} | {81-120,1,1/2} | {121-160,1,1/2}
c num_e-seeds                           37+2=39
c  e-seeds                              1 0 1 0 5 160 2 40 0 40 1 40 0 40 1 618 4 1 1 1 1 2 2 2 1 1 2 3 3 1 1 2 4 4 1 1 2 1 1585242932514417561
p cnf 160 618
a 1 2 3 4 5 6 7 8 9 10 11 12 13 14 15 16 17 18 19 20 21 22 23 24 25 26 27 28 29 30 31 32 33 34 35 36 37 38 39 40 0
e 41 42 43 44 45 46 47 48 49 50 51 52 53 54 55 56 57 58 59 60 61 62 63 64 65 66 67 68 69 70 71 72 73 74 75 76 77 78 79 80 0
a 81 82 83 84 85 86 87 88 89 90 91 92 93 94 95 96 97 98 99 100 101 102 103 104 105 106 107 108 109 110 111 112 113 114 115 116 117 118 119 120 0
e 121 122 123 124 125 126 127 128 129 130 131 132 133 134 135 136 137 138 139 140 141 142 143 144 145 146 147 148 149 150 151 152 153 154 155 156 157 158 159 160 0
-30 64 -85 -121 0
23 73 97 -121 0
24 -52 102 -121 0
11 55 103 -121 0
13 50 -105 -121 0
-17 -55 -107 -121 0
22 -61 107 -121 0
10 -79 -109 -121 0
-16 49 -85 121 0
-35 52 86 121 0
-38 53 -88 121 0
7 -45 109 121 0
-38 69 82 -122 0
-11 49 97 -122 0
-2 66 100 -122 0
-13 64 101 -122 0
29 68 112 -122 0
40 -77 114 -122 0
10 -41 117 -122 0
-12 64 -118 -122 0
-27 41 -95 122 0
16 45 95 122 0
-39 -43 98 122 0
-38 71 -103 122 0
-7 68 106 122 0
-25 -73 -117 122 0
-33 51 117 122 0
-40 -51 118 122 0
36 60 -120 122 0
-33 68 -84 -123 0
-22 -76 -84 -123 0
-3 45 -90 -123 0
10 59 -96 -123 0
25 79 98 -123 0
10 -45 102 -123 0
-26 62 -108 -123 0
-39 -62 110 -123 0
15 -46 111 -123 0
7 -76 113 -123 0
8 -80 117 -123 0
-36 -42 -118 -123 0
-8 80 120 -123 0
-32 -68 -92 123 0
2 41 100 123 0
-5 -45 104 123 0
-4 58 -106 123 0
38 76 -107 123 0
34 -65 -116 123 0
23 -79 -81 -124 0
33 -69 104 -124 0
39 41 -106 -124 0
-17 74 85 124 0
10 53 88 124 0
28 71 91 124 0
-33 -58 94 124 0
33 -44 98 124 0
29 -61 -100 124 0
-18 73 107 124 0
16 72 -110 124 0
-5 73 -113 124 0
38 -76 115 124 0
-39 -70 -87 -125 0
-39 -49 106 -125 0
-2 63 114 -125 0
20 -66 -120 -125 0
22 54 -86 125 0
-19 42 99 125 0
26 52 -111 125 0
-9 -58 111 125 0
-26 -64 112 125 0
-21 -43 -114 125 0
-31 -63 88 -126 0
-19 -77 90 -126 0
27 -74 -91 -126 0
-10 -45 98 -126 0
-34 -63 99 -126 0
-2 -42 100 -126 0
14 -43 104 -126 0
38 48 -105 -126 0
12 69 -115 -126 0
-15 -61 116 -126 0
-30 76 -119 -126 0
-23 -57 -86 126 0
20 -46 90 126 0
17 -79 -100 126 0
7 -46 -112 126 0
-22 -67 112 126 0
23 -44 -115 126 0
-29 49 90 -127 0
-22 -72 102 -127 0
7 70 -104 -127 0
27 -55 107 -127 0
23 -64 107 -127 0
-28 66 -114 -127 0
-19 -46 81 127 0
36 62 -85 127 0
38 -50 86 127 0
-3 -48 95 127 0
-26 -70 -100 127 0
33 50 -101 127 0
-29 43 101 127 0
-17 -79 102 127 0
32 68 113 127 0
17 -70 -117 127 0
-10 -74 85 -128 0
-17 -47 -89 -128 0
24 -76 -92 -128 0
-6 -65 95 -128 0
-38 -66 -105 -128 0
-36 67 -116 -128 0
-7 -48 -120 -128 0
-27 -70 -85 128 0
35 -45 92 128 0
9 66 97 128 0
31 -60 -100 128 0
-27 51 -116 128 0
-22 48 117 128 0
4 -76 -89 -129 0
-25 68 90 -129 0
23 67 -92 -129 0
9 -41 -95 -129 0
7 -60 -95 -129 0
-24 -53 97 -129 0
15 64 -92 129 0
40 -61 104 129 0
-28 -48 113 129 0
12 -65 117 129 0
1 -68 -83 -130 0
15 -48 85 -130 0
29 68 88 -130 0
28 48 -99 -130 0
23 -69 100 -130 0
-18 -62 -106 -130 0
36 44 118 -130 0
-14 -71 -81 130 0
36 48 -86 130 0
27 48 -91 130 0
-37 67 93 130 0
14 -46 94 130 0
-29 -50 -103 130 0
-28 -80 -111 130 0
13 -67 -113 130 0
-19 -68 115 130 0
-5 -75 115 130 0
6 62 -92 -131 0
-18 69 -103 -131 0
26 -51 -104 -131 0
13 -69 -104 -131 0
22 -58 -106 -131 0
-27 68 -108 -131 0
7 70 -108 -131 0
38 -57 109 -131 0
39 -67 -114 -131 0
30 -77 115 -131 0
-17 -72 116 -131 0
-34 46 117 -131 0
-35 -59 120 -131 0
-1 -66 120 -131 0
-36 -69 81 131 0
-36 61 82 131 0
-4 -66 -83 131 0
26 -68 -84 131 0
-7 61 -90 131 0
1 46 92 131 0
6 44 101 131 0
16 54 102 131 0
33 -78 -107 131 0
-12 -71 109 131 0
-20 64 118 131 0
-27 50 82 -132 0
10 -42 -86 -132 0
-6 73 -100 -132 0
-12 -77 -104 -132 0
28 80 107 -132 0
32 -50 -115 -132 0
-8 -71 83 132 0
-39 -43 89 132 0
-23 57 -93 132 0
40 57 -102 132 0
-17 -65 103 132 0
-20 69 104 132 0
14 75 107 132 0
8 80 -115 132 0
-14 -48 -90 -133 0
16 70 96 -133 0
-29 55 -104 -133 0
6 -43 -106 -133 0
-37 -43 118 -133 0
-9 -64 119 -133 0
-4 64 119 -133 0
-39 54 -92 133 0
38 66 -94 133 0
7 -46 94 133 0
13 -49 -95 133 0
22 79 99 133 0
-18 -78 -117 133 0
-22 -68 -82 -134 0
-33 -79 85 -134 0
9 -64 88 -134 0
-25 -45 -89 -134 0
40 52 95 -134 0
-38 48 -105 -134 0
14 55 -105 -134 0
-4 51 -115 -134 0
39 -46 119 -134 0
1 52 92 134 0
-21 -53 -95 134 0
30 63 -97 134 0
22 -65 -101 134 0
-12 -77 101 134 0
35 45 105 134 0
-23 -51 -108 134 0
31 -46 108 134 0
-1 57 -119 134 0
-5 -59 -88 -135 0
22 -63 89 -135 0
-23 -52 94 -135 0
-40 67 -95 -135 0
-15 79 -105 -135 0
-6 -59 105 -135 0
21 42 -106 -135 0
39 -68 -116 -135 0
6 71 118 -135 0
-32 50 -119 -135 0
-7 -64 87 135 0
5 68 -88 135 0
-8 65 -100 135 0
-34 -49 100 135 0
3 -64 112 135 0
-9 63 -113 135 0
-21 -41 113 135 0
-32 74 -115 135 0
-1 68 -120 135 0
5 52 -82 -136 0
-35 -53 -86 -136 0
-24 -60 91 -136 0
16 -64 93 -136 0
-2 78 97 -136 0
5 -76 -103 -136 0
-32 -46 -111 -136 0
-32 55 120 -136 0
4 48 81 136 0
-18 -71 -86 136 0
-12 67 -90 136 0
5 -75 -90 136 0
10 -48 -100 136 0
15 61 -101 136 0
40 -47 105 136 0
3 -65 -108 136 0
-35 -79 89 -137 0
-8 -41 -92 -137 0
25 -70 97 -137 0
24 -59 -107 -137 0
-39 -52 -111 -137 0
-34 -59 82 137 0
3 48 90 137 0
28 61 -92 137 0
8 57 -97 137 0
-17 -59 104 137 0
39 74 105 137 0
-12 -66 -108 137 0
-27 44 -114 137 0
1 -69 114 137 0
-34 56 -118 137 0
-13 64 -119 137 0
-34 -65 -82 -138 0
32 -80 84 -138 0
-13 -74 -89 -138 0
28 -46 -90 -138 0
40 -64 101 -138 0
19 73 -103 -138 0
-9 -42 107 -138 0
31 -63 -109 -138 0
3 -53 -116 -138 0
7 76 -118 -138 0
28 60 -119 -138 0
-31 -54 84 138 0
-36 57 89 138 0
16 -65 -90 138 0
-21 -41 98 138 0
36 -41 99 138 0
19 77 111 138 0
-31 54 -86 -139 0
40 41 -93 -139 0
27 -54 107 -139 0
-25 66 -110 -139 0
34 -48 -87 139 0
27 -52 88 139 0
-29 -66 89 139 0
-17 44 95 139 0
-1 43 97 139 0
30 80 103 139 0
21 56 104 139 0
-19 80 105 139 0
-9 -55 -113 139 0
7 72 113 139 0
-34 -43 -82 -140 0
-10 79 -82 -140 0
13 55 101 -140 0
39 69 103 -140 0
-23 -77 105 -140 0
11 -49 106 -140 0
-23 69 83 140 0
-25 53 96 140 0
-14 42 98 140 0
14 64 100 140 0
-15 55 110 140 0
-37 75 -82 -141 0
10 66 -84 -141 0
3 76 97 -141 0
-17 -57 104 -141 0
-3 -70 105 -141 0
-28 51 -113 -141 0
-5 63 -85 141 0
-5 -50 87 141 0
-21 -43 -94 141 0
-4 -55 -96 141 0
28 57 96 141 0
-40 64 -101 141 0
22 -46 111 141 0
11 -73 111 141 0
16 77 -112 141 0
22 -51 -83 -142 0
-32 -72 91 -142 0
34 47 101 -142 0
39 43 87 142 0
-10 -80 -98 142 0
19 56 -110 142 0
-24 -56 120 142 0
-35 -55 -81 -143 0
-2 -61 96 -143 0
25 -79 -104 -143 0
11 73 -111 -143 0
11 77 -111 -143 0
6 50 112 -143 0
-23 66 115 -143 0
-8 70 115 -143 0
6 -49 -116 -143 0
-30 58 -119 -143 0
-39 -78 81 143 0
-32 44 82 143 0
-10 53 108 143 0
-18 -43 -119 143 0
21 -74 -81 -144 0
-16 -44 -90 -144 0
7 61 95 -144 0
27 -45 -96 -144 0
18 -67 98 -144 0
18 67 -109 -144 0
27 53 -112 -144 0
-14 -45 113 -144 0
-4 -71 -118 -144 0
13 80 82 144 0
4 -62 84 144 0
7 66 -87 144 0
9 49 -94 144 0
35 79 97 144 0
-12 -67 -98 144 0
8 -61 102 144 0
15 56 -104 144 0
8 48 -109 144 0
25 80 114 144 0
1 -54 -116 144 0
31 -59 -118 144 0
-5 64 -81 -145 0
18 57 96 -145 0
6 -47 102 -145 0
34 -52 108 -145 0
-32 42 -113 -145 0
31 -65 -116 -145 0
-35 -77 96 145 0
-23 77 100 145 0
8 47 105 145 0
40 -52 -108 145 0
-6 61 -108 145 0
13 69 109 145 0
-7 70 111 145 0
-32 75 -83 -146 0
1 44 88 -146 0
-3 56 -93 -146 0
-14 -75 93 -146 0
-34 67 -95 -146 0
-9 80 -99 -146 0
9 -50 -104 -146 0
-15 71 -118 -146 0
38 -41 -83 146 0
-21 -75 -83 146 0
-12 78 -85 146 0
19 -64 -91 146 0
-18 -51 -97 146 0
-31 -80 -97 146 0
3 52 -100 146 0
-36 -46 110 146 0
-33 73 -111 146 0
-11 69 87 -147 0
4 50 94 -147 0
22 76 -106 -147 0
31 50 106 -147 0
24 -42 -108 -147 0
10 46 109 -147 0
-39 -60 110 -147 0
10 -56 112 -147 0
5 48 87 147 0
-13 51 87 147 0
18 60 100 147 0
-16 53 -107 147 0
7 51 107 147 0
-5 -42 -110 147 0
-36 45 112 147 0
10 -78 115 147 0
5 67 83 -148 0
3 -64 88 -148 0
22 -54 -90 -148 0
-12 -73 100 -148 0
-35 77 103 -148 0
-6 -54 -107 -148 0
-33 -48 107 -148 0
3 49 111 -148 0
4 -50 112 -148 0
27 51 115 -148 0
37 -42 91 148 0
-39 77 95 148 0
-20 -73 -100 148 0
-6 59 -105 148 0
4 65 113 148 0
22 -69 83 -149 0
-29 75 85 -149 0
40 -46 -91 -149 0
34 75 -104 -149 0
10 49 -105 -149 0
34 44 87 149 0
25 -42 -94 149 0
13 48 -95 149 0
-28 71 99 149 0
5 48 105 149 0
-19 57 -112 149 0
36 68 112 149 0
-10 -74 -113 149 0
-19 -72 -90 -150 0
9 -44 110 -150 0
4 70 116 -150 0
34 69 83 150 0
9 52 -85 150 0
-9 -62 -100 150 0
-10 -54 103 150 0
-18 -72 104 150 0
27 -61 -108 150 0
-3 -46 -111 150 0
39 66 113 150 0
-26 49 -118 150 0
3 -79 118 150 0
-7 -70 -120 150 0
35 -67 89 -151 0
-25 -46 -96 -151 0
-26 53 -97 -151 0
8 47 -98 -151 0
19 43 -101 -151 0
-4 -49 -81 151 0
28 -42 -93 151 0
39 -64 -99 151 0
-21 63 107 151 0
28 53 114 151 0
-3 -65 116 151 0
16 -48 84 -152 0
-5 46 94 -152 0
-27 -67 100 -152 0
-21 -65 103 -152 0
24 49 -109 -152 0
8 58 -110 -152 0
-18 55 115 -152 0
-38 63 -118 -152 0
-40 55 86 152 0
-9 -41 103 152 0
-17 -47 104 152 0
2 75 -105 152 0
-35 60 113 152 0
-35 -58 115 152 0
13 45 -116 152 0
20 73 116 152 0
17 -52 120 152 0
-4 -65 120 152 0
-39 -64 -83 -153 0
-39 -48 87 -153 0
-11 41 95 -153 0
-26 70 -98 -153 0
40 -58 -105 -153 0
9 -53 -108 -153 0
-34 65 -108 -153 0
24 -43 109 -153 0
-5 65 112 -153 0
-8 43 119 -153 0
-14 -73 -87 153 0
26 48 89 153 0
-9 70 97 153 0
27 -43 -101 153 0
30 59 111 153 0
-37 46 112 153 0
32 -65 119 153 0
-1 -70 92 -154 0
2 50 -99 -154 0
9 43 100 -154 0
5 77 107 -154 0
25 -43 -110 -154 0
-8 69 81 154 0
-19 -80 84 154 0
5 -70 88 154 0
-31 44 89 154 0
23 78 98 154 0
-3 54 101 154 0
-14 -57 101 154 0
-39 -52 108 154 0
-30 -67 -109 154 0
-1 50 -84 -155 0
-33 -43 84 -155 0
31 48 -93 -155 0
-12 -58 -96 -155 0
30 -63 98 -155 0
4 48 -106 -155 0
38 76 115 -155 0
4 -71 116 -155 0
-15 -73 83 155 0
19 75 -86 155 0
27 -50 -90 155 0
-27 70 -92 155 0
3 -72 95 155 0
36 44 -105 155 0
-6 -74 105 155 0
-10 -78 106 155 0
-9 60 87 -156 0
29 -55 96 -156 0
-30 67 -98 -156 0
5 -59 -113 -156 0
24 -71 118 -156 0
-17 59 -83 156 0
-24 -68 83 156 0
-16 77 93 156 0
-24 64 102 156 0
-33 -50 -105 156 0
11 -77 -106 156 0
-6 -52 82 -157 0
-3 50 85 -157 0
25 -45 88 -157 0
-14 -49 89 -157 0
-11 -80 91 -157 0
-39 -53 94 -157 0
32 -61 -100 -157 0
4 -56 -105 -157 0
37 -70 -108 -157 0
-6 -61 -109 -157 0
-36 46 111 -157 0
-8 -58 113 -157 0
-27 75 -116 -157 0
-8 41 116 -157 0
24 59 -118 -157 0
-36 -46 85 157 0
-38 -52 85 157 0
1 -46 -91 157 0
-27 53 93 157 0
-13 -54 96 157 0
-21 75 -99 157 0
36 -60 -105 157 0
27 -52 106 157 0
-7 56 108 157 0
-6 -51 117 157 0
-34 66 -81 -158 0
6 -80 -81 -158 0
-34 -57 83 -158 0
-13 75 86 -158 0
-34 -56 87 -158 0
40 -43 88 -158 0
26 68 -86 158 0
-9 67 -87 158 0
1 -80 -95 158 0
27 42 96 158 0
-7 55 105 158 0
-33 71 -106 158 0
-11 56 -108 158 0
-5 73 -111 158 0
15 -54 -115 158 0
-23 -69 -115 158 0
22 -64 115 158 0
-5 42 119 158 0
36 70 -90 -159 0
-14 50 -93 -159 0
34 49 -97 -159 0
8 52 -101 -159 0
-24 -50 101 -159 0
16 -55 -102 -159 0
-29 -42 102 -159 0
9 -51 106 -159 0
26 47 115 -159 0
33 77 -116 -159 0
37 -74 119 -159 0
-15 41 -120 -159 0
1 50 100 159 0
5 -57 -101 159 0
11 -46 107 159 0
-12 -80 -110 159 0
12 71 110 159 0
16 77 111 159 0
-30 55 -114 159 0
26 52 -95 -160 0
2 75 96 -160 0
2 -46 99 -160 0
-9 -74 -102 -160 0
40 -61 -107 -160 0
-3 53 -115 -160 0
-21 58 -118 -160 0
-15 67 -118 -160 0
3 -72 -118 -160 0
-9 79 -120 -160 0
-17 -61 86 160 0
15 -63 98 160 0
-2 -74 102 160 0
-7 64 106 160 0
15 75 -108 160 0
-32 44 -113 160 0
24 -58 117 160 0
